
Gurobi 8.1.0 (linux64, Python) logging started Wed Nov 21 23:05:54 2018

Academic license - for non-commercial use only
Read LP format model from file demo.lp
Reading time = 0.00 seconds
: 4 rows, 7 columns, 23 nonzeros
Optimize a model with 4 rows, 7 columns and 23 nonzeros
Coefficient statistics:
  Matrix range     [1e-02, 3e+01]
  Objective range  [1e+00, 9e+00]
  Bounds range     [1e+00, 1e+00]
  RHS range        [0e+00, 0e+00]
Presolve removed 1 rows and 1 columns
Presolve time: 0.00s
Presolved: 3 rows, 6 columns, 17 nonzeros

Iteration    Objective       Primal Inf.    Dual Inf.      Time
       0   -9.0000000e+00   1.951989e+00   0.000000e+00      0s
       3   -9.0000000e+00   0.000000e+00   0.000000e+00      0s

Solved in 3 iterations and 0.00 seconds
Optimal objective -9.000000000e+00
